c turning on binary mode checking
c parsing input formula with 259840 variables and 1039929 clauses
c finished parsing, read 3091112 bytes from proof file
c detected empty clause; start verification via backward checking
c 2029 of 1039929 clauses in core                            
c 677 of 122884 lemmas in core using 13119 resolution steps
c 0 RAT lemmas in core; 9 redundant literals in core lemmas
s VERIFIED
c verification time: 1.252 seconds
